c Octahedral graph
c Source:  https://houseofgraphs.org/graphs/226
c HoG id: 226
c Number of vertices: 6
c Number of edges: 12
c Maximum clique size: 3
p edge 6 12
e 1 2
e 1 3
e 1 4
e 1 5
e 2 3
e 2 4
e 2 6
e 3 5
e 3 6
e 4 5
e 4 6
e 5 6